$rem 
	JOBTYPE OPT 
	UNRESTRICTED TRUE 
	EXCHANGE PBE0 
	BASIS SV 
	MAX_SCF_CYCLES 1000 
	SCF_CONVERGENCE 7 
	GEOM_OPT_MAX_CYCLES 1000 
	SYMMETRY TRUE 
$end 

$molecule
0 1
  O   0.06663469608193      0.06664470666271      0.00000000000000
  H   1.02706626758333     -0.09371091597569      0.00000000000000
  H   -0.09370096366527      1.02706620931297      0.00000000000000
$end


@@@ 

$rem 
	JOBTYPE OPT 
	UNRESTRICTED TRUE 
	EXCHANGE PBE0 
	BASIS TZV 
	MAX_SCF_CYCLES 1000 
	SCF_CONVERGENCE 7 
	GEOM_OPT_MAX_CYCLES 1000 
	SYMMETRY TRUE 
$end 
$molecule 
	read 
$end 

