$rem 
	JOBTYPE OPT 
	UNRESTRICTED TRUE 
	EXCHANGE PBE0 
	BASIS SV 
	MAX_SCF_CYCLES 1000 
	SCF_CONVERGENCE 7 
	GEOM_OPT_MAX_CYCLES 1000 
	SYMMETRY TRUE 
$end 

$molecule
0 1
xyzlinehere
$end


@@@ 

$rem 
	JOBTYPE OPT 
	UNRESTRICTED TRUE 
	EXCHANGE PBE0 
	BASIS TZV 
	MAX_SCF_CYCLES 1000 
	SCF_CONVERGENCE 7 
	GEOM_OPT_MAX_CYCLES 1000 
	SYMMETRY TRUE 
$end 
$molecule 
	read 
$end 

